language ESSENCE' 1.0
$ Minion SolverNodes: 19158
$ Minion SolverTotalTime: 47.3664
$ Minion SolverTimeOut: 0
$ Savile Row TotalTime: 65.835
letting numberOfTurningPoints be 14
letting states be [[[0, 0, 1, 1, 0, 0, 0], 
[0, 0, 0, 0, 0, 0, 0], 
[0, 0, 0, 0, 0, 0, 0], 
[0, 0, 0, 0, 0, 0, 0], 
[0, 0, 0, 0, 0, 0, 0], 
[0, 0, 0, 1, 0, 0, 0], 
[0, 0, 0, 0, 0, 0, 0]], 
[[0, 0, 1, 1, 1, 1, 1], 
[0, 0, 0, 0, 0, 0, 0], 
[0, 0, 0, 0, 0, 0, 0], 
[0, 0, 0, 0, 0, 0, 0], 
[0, 0, 0, 0, 0, 0, 0], 
[0, 0, 0, 1, 0, 0, 0], 
[0, 0, 0, 0, 0, 0, 0]], 
[[0, 0, 1, 1, 1, 1, 1], 
[0, 0, 0, 0, 0, 0, 1], 
[0, 0, 0, 0, 0, 0, 1], 
[0, 0, 0, 0, 0, 0, 1], 
[0, 0, 0, 0, 0, 0, 1], 
[0, 0, 0, 1, 0, 0, 1], 
[0, 0, 0, 0, 0, 0, 1]], 
[[0, 0, 1, 1, 1, 1, 1], 
[0, 0, 0, 0, 0, 0, 1], 
[0, 0, 0, 0, 0, 0, 1], 
[0, 0, 0, 0, 0, 0, 1], 
[0, 0, 0, 0, 0, 0, 1], 
[0, 0, 0, 1, 0, 0, 1], 
[1, 1, 1, 1, 1, 1, 1]], 
[[1, 0, 1, 1, 1, 1, 1], 
[1, 0, 0, 0, 0, 0, 1], 
[1, 0, 0, 0, 0, 0, 1], 
[1, 0, 0, 0, 0, 0, 1], 
[1, 0, 0, 0, 0, 0, 1], 
[1, 0, 0, 1, 0, 0, 1], 
[1, 1, 1, 1, 1, 1, 1]], 
[[1, 1, 1, 1, 1, 1, 1], 
[1, 0, 0, 0, 0, 0, 1], 
[1, 0, 0, 0, 0, 0, 1], 
[1, 0, 0, 0, 0, 0, 1], 
[1, 0, 0, 0, 0, 0, 1], 
[1, 0, 0, 1, 0, 0, 1], 
[1, 1, 1, 1, 1, 1, 1]], 
[[1, 1, 1, 1, 1, 1, 1], 
[1, 1, 0, 0, 0, 0, 1], 
[1, 1, 0, 0, 0, 0, 1], 
[1, 1, 0, 0, 0, 0, 1], 
[1, 1, 0, 0, 0, 0, 1], 
[1, 1, 0, 1, 0, 0, 1], 
[1, 1, 1, 1, 1, 1, 1]], 
[[1, 1, 1, 1, 1, 1, 1], 
[1, 1, 0, 0, 0, 0, 1], 
[1, 1, 0, 0, 0, 0, 1], 
[1, 1, 0, 0, 0, 0, 1], 
[1, 1, 0, 0, 0, 0, 1], 
[1, 1, 1, 1, 0, 0, 1], 
[1, 1, 1, 1, 1, 1, 1]], 
[[1, 1, 1, 1, 1, 1, 1], 
[1, 1, 1, 0, 0, 0, 1], 
[1, 1, 1, 0, 0, 0, 1], 
[1, 1, 1, 0, 0, 0, 1], 
[1, 1, 1, 0, 0, 0, 1], 
[1, 1, 1, 1, 0, 0, 1], 
[1, 1, 1, 1, 1, 1, 1]], 
[[1, 1, 1, 1, 1, 1, 1], 
[1, 1, 1, 1, 1, 1, 1], 
[1, 1, 1, 0, 0, 0, 1], 
[1, 1, 1, 0, 0, 0, 1], 
[1, 1, 1, 0, 0, 0, 1], 
[1, 1, 1, 1, 0, 0, 1], 
[1, 1, 1, 1, 1, 1, 1]], 
[[1, 1, 1, 1, 1, 1, 1], 
[1, 1, 1, 1, 1, 1, 1], 
[1, 1, 1, 0, 0, 1, 1], 
[1, 1, 1, 0, 0, 1, 1], 
[1, 1, 1, 0, 0, 1, 1], 
[1, 1, 1, 1, 0, 1, 1], 
[1, 1, 1, 1, 1, 1, 1]], 
[[1, 1, 1, 1, 1, 1, 1], 
[1, 1, 1, 1, 1, 1, 1], 
[1, 1, 1, 0, 0, 1, 1], 
[1, 1, 1, 0, 0, 1, 1], 
[1, 1, 1, 0, 0, 1, 1], 
[1, 1, 1, 1, 1, 1, 1], 
[1, 1, 1, 1, 1, 1, 1]], 
[[1, 1, 1, 1, 1, 1, 1], 
[1, 1, 1, 1, 1, 1, 1], 
[1, 1, 1, 0, 1, 1, 1], 
[1, 1, 1, 0, 1, 1, 1], 
[1, 1, 1, 0, 1, 1, 1], 
[1, 1, 1, 1, 1, 1, 1], 
[1, 1, 1, 1, 1, 1, 1]], 
[[1, 1, 1, 1, 1, 1, 1], 
[1, 1, 1, 1, 1, 1, 1], 
[1, 1, 1, 1, 1, 1, 1], 
[1, 1, 1, 0, 1, 1, 1], 
[1, 1, 1, 0, 1, 1, 1], 
[1, 1, 1, 1, 1, 1, 1], 
[1, 1, 1, 1, 1, 1, 1]], 
[[1, 1, 1, 1, 1, 1, 1], 
[1, 1, 1, 1, 1, 1, 1], 
[1, 1, 1, 1, 1, 1, 1], 
[1, 1, 1, 1, 1, 1, 1], 
[1, 1, 1, 1, 1, 1, 1], 
[1, 1, 1, 1, 1, 1, 1], 
[1, 1, 1, 1, 1, 1, 1]], 
[[1, 1, 1, 1, 1, 1, 1], 
[1, 1, 1, 1, 1, 1, 1], 
[1, 1, 1, 1, 1, 1, 1], 
[1, 1, 1, 1, 1, 1, 1], 
[1, 1, 1, 1, 1, 1, 1], 
[1, 1, 1, 1, 1, 1, 1], 
[1, 1, 1, 1, 1, 1, 1]], 
[[1, 1, 1, 1, 1, 1, 1], 
[1, 1, 1, 1, 1, 1, 1], 
[1, 1, 1, 1, 1, 1, 1], 
[1, 1, 1, 1, 1, 1, 1], 
[1, 1, 1, 1, 1, 1, 1], 
[1, 1, 1, 1, 1, 1, 1], 
[1, 1, 1, 1, 1, 1, 1]], 
[[1, 1, 1, 1, 1, 1, 1], 
[1, 1, 1, 1, 1, 1, 1], 
[1, 1, 1, 1, 1, 1, 1], 
[1, 1, 1, 1, 1, 1, 1], 
[1, 1, 1, 1, 1, 1, 1], 
[1, 1, 1, 1, 1, 1, 1], 
[1, 1, 1, 1, 1, 1, 1]], 
[[1, 1, 1, 1, 1, 1, 1], 
[1, 1, 1, 1, 1, 1, 1], 
[1, 1, 1, 1, 1, 1, 1], 
[1, 1, 1, 1, 1, 1, 1], 
[1, 1, 1, 1, 1, 1, 1], 
[1, 1, 1, 1, 1, 1, 1], 
[1, 1, 1, 1, 1, 1, 1]], 
[[1, 1, 1, 1, 1, 1, 1], 
[1, 1, 1, 1, 1, 1, 1], 
[1, 1, 1, 1, 1, 1, 1], 
[1, 1, 1, 1, 1, 1, 1], 
[1, 1, 1, 1, 1, 1, 1], 
[1, 1, 1, 1, 1, 1, 1], 
[1, 1, 1, 1, 1, 1, 1]], 
[[1, 1, 1, 1, 1, 1, 1], 
[1, 1, 1, 1, 1, 1, 1], 
[1, 1, 1, 1, 1, 1, 1], 
[1, 1, 1, 1, 1, 1, 1], 
[1, 1, 1, 1, 1, 1, 1], 
[1, 1, 1, 1, 1, 1, 1], 
[1, 1, 1, 1, 1, 1, 1]], 
[[1, 1, 1, 1, 1, 1, 1], 
[1, 1, 1, 1, 1, 1, 1], 
[1, 1, 1, 1, 1, 1, 1], 
[1, 1, 1, 1, 1, 1, 1], 
[1, 1, 1, 1, 1, 1, 1], 
[1, 1, 1, 1, 1, 1, 1], 
[1, 1, 1, 1, 1, 1, 1]], 
[[1, 1, 1, 1, 1, 1, 1], 
[1, 1, 1, 1, 1, 1, 1], 
[1, 1, 1, 1, 1, 1, 1], 
[1, 1, 1, 1, 1, 1, 1], 
[1, 1, 1, 1, 1, 1, 1], 
[1, 1, 1, 1, 1, 1, 1], 
[1, 1, 1, 1, 1, 1, 1]], 
[[1, 1, 1, 1, 1, 1, 1], 
[1, 1, 1, 1, 1, 1, 1], 
[1, 1, 1, 1, 1, 1, 1], 
[1, 1, 1, 1, 1, 1, 1], 
[1, 1, 1, 1, 1, 1, 1], 
[1, 1, 1, 1, 1, 1, 1], 
[1, 1, 1, 1, 1, 1, 1]], 
[[1, 1, 1, 1, 1, 1, 1], 
[1, 1, 1, 1, 1, 1, 1], 
[1, 1, 1, 1, 1, 1, 1], 
[1, 1, 1, 1, 1, 1, 1], 
[1, 1, 1, 1, 1, 1, 1], 
[1, 1, 1, 1, 1, 1, 1], 
[1, 1, 1, 1, 1, 1, 1]], 
[[1, 1, 1, 1, 1, 1, 1], 
[1, 1, 1, 1, 1, 1, 1], 
[1, 1, 1, 1, 1, 1, 1], 
[1, 1, 1, 1, 1, 1, 1], 
[1, 1, 1, 1, 1, 1, 1], 
[1, 1, 1, 1, 1, 1, 1], 
[1, 1, 1, 1, 1, 1, 1]], 
[[1, 1, 1, 1, 1, 1, 1], 
[1, 1, 1, 1, 1, 1, 1], 
[1, 1, 1, 1, 1, 1, 1], 
[1, 1, 1, 1, 1, 1, 1], 
[1, 1, 1, 1, 1, 1, 1], 
[1, 1, 1, 1, 1, 1, 1], 
[1, 1, 1, 1, 1, 1, 1]], 
[[1, 1, 1, 1, 1, 1, 1], 
[1, 1, 1, 1, 1, 1, 1], 
[1, 1, 1, 1, 1, 1, 1], 
[1, 1, 1, 1, 1, 1, 1], 
[1, 1, 1, 1, 1, 1, 1], 
[1, 1, 1, 1, 1, 1, 1], 
[1, 1, 1, 1, 1, 1, 1]], 
[[1, 1, 1, 1, 1, 1, 1], 
[1, 1, 1, 1, 1, 1, 1], 
[1, 1, 1, 1, 1, 1, 1], 
[1, 1, 1, 1, 1, 1, 1], 
[1, 1, 1, 1, 1, 1, 1], 
[1, 1, 1, 1, 1, 1, 1], 
[1, 1, 1, 1, 1, 1, 1]], 
[[1, 1, 1, 1, 1, 1, 1], 
[1, 1, 1, 1, 1, 1, 1], 
[1, 1, 1, 1, 1, 1, 1], 
[1, 1, 1, 1, 1, 1, 1], 
[1, 1, 1, 1, 1, 1, 1], 
[1, 1, 1, 1, 1, 1, 1], 
[1, 1, 1, 1, 1, 1, 1]], 
[[1, 1, 1, 1, 1, 1, 1], 
[1, 1, 1, 1, 1, 1, 1], 
[1, 1, 1, 1, 1, 1, 1], 
[1, 1, 1, 1, 1, 1, 1], 
[1, 1, 1, 1, 1, 1, 1], 
[1, 1, 1, 1, 1, 1, 1], 
[1, 1, 1, 1, 1, 1, 1]], 
[[1, 1, 1, 1, 1, 1, 1], 
[1, 1, 1, 1, 1, 1, 1], 
[1, 1, 1, 1, 1, 1, 1], 
[1, 1, 1, 1, 1, 1, 1], 
[1, 1, 1, 1, 1, 1, 1], 
[1, 1, 1, 1, 1, 1, 1], 
[1, 1, 1, 1, 1, 1, 1]], 
[[1, 1, 1, 1, 1, 1, 1], 
[1, 1, 1, 1, 1, 1, 1], 
[1, 1, 1, 1, 1, 1, 1], 
[1, 1, 1, 1, 1, 1, 1], 
[1, 1, 1, 1, 1, 1, 1], 
[1, 1, 1, 1, 1, 1, 1], 
[1, 1, 1, 1, 1, 1, 1]], 
[[1, 1, 1, 1, 1, 1, 1], 
[1, 1, 1, 1, 1, 1, 1], 
[1, 1, 1, 1, 1, 1, 1], 
[1, 1, 1, 1, 1, 1, 1], 
[1, 1, 1, 1, 1, 1, 1], 
[1, 1, 1, 1, 1, 1, 1], 
[1, 1, 1, 1, 1, 1, 1]], 
[[1, 1, 1, 1, 1, 1, 1], 
[1, 1, 1, 1, 1, 1, 1], 
[1, 1, 1, 1, 1, 1, 1], 
[1, 1, 1, 1, 1, 1, 1], 
[1, 1, 1, 1, 1, 1, 1], 
[1, 1, 1, 1, 1, 1, 1], 
[1, 1, 1, 1, 1, 1, 1]], 
[[1, 1, 1, 1, 1, 1, 1], 
[1, 1, 1, 1, 1, 1, 1], 
[1, 1, 1, 1, 1, 1, 1], 
[1, 1, 1, 1, 1, 1, 1], 
[1, 1, 1, 1, 1, 1, 1], 
[1, 1, 1, 1, 1, 1, 1], 
[1, 1, 1, 1, 1, 1, 1]], 
[[1, 1, 1, 1, 1, 1, 1], 
[1, 1, 1, 1, 1, 1, 1], 
[1, 1, 1, 1, 1, 1, 1], 
[1, 1, 1, 1, 1, 1, 1], 
[1, 1, 1, 1, 1, 1, 1], 
[1, 1, 1, 1, 1, 1, 1], 
[1, 1, 1, 1, 1, 1, 1]], 
[[1, 1, 1, 1, 1, 1, 1], 
[1, 1, 1, 1, 1, 1, 1], 
[1, 1, 1, 1, 1, 1, 1], 
[1, 1, 1, 1, 1, 1, 1], 
[1, 1, 1, 1, 1, 1, 1], 
[1, 1, 1, 1, 1, 1, 1], 
[1, 1, 1, 1, 1, 1, 1]], 
[[1, 1, 1, 1, 1, 1, 1], 
[1, 1, 1, 1, 1, 1, 1], 
[1, 1, 1, 1, 1, 1, 1], 
[1, 1, 1, 1, 1, 1, 1], 
[1, 1, 1, 1, 1, 1, 1], 
[1, 1, 1, 1, 1, 1, 1], 
[1, 1, 1, 1, 1, 1, 1]], 
[[1, 1, 1, 1, 1, 1, 1], 
[1, 1, 1, 1, 1, 1, 1], 
[1, 1, 1, 1, 1, 1, 1], 
[1, 1, 1, 1, 1, 1, 1], 
[1, 1, 1, 1, 1, 1, 1], 
[1, 1, 1, 1, 1, 1, 1], 
[1, 1, 1, 1, 1, 1, 1]], 
[[1, 1, 1, 1, 1, 1, 1], 
[1, 1, 1, 1, 1, 1, 1], 
[1, 1, 1, 1, 1, 1, 1], 
[1, 1, 1, 1, 1, 1, 1], 
[1, 1, 1, 1, 1, 1, 1], 
[1, 1, 1, 1, 1, 1, 1], 
[1, 1, 1, 1, 1, 1, 1]], 
[[1, 1, 1, 1, 1, 1, 1], 
[1, 1, 1, 1, 1, 1, 1], 
[1, 1, 1, 1, 1, 1, 1], 
[1, 1, 1, 1, 1, 1, 1], 
[1, 1, 1, 1, 1, 1, 1], 
[1, 1, 1, 1, 1, 1, 1], 
[1, 1, 1, 1, 1, 1, 1]], 
[[1, 1, 1, 1, 1, 1, 1], 
[1, 1, 1, 1, 1, 1, 1], 
[1, 1, 1, 1, 1, 1, 1], 
[1, 1, 1, 1, 1, 1, 1], 
[1, 1, 1, 1, 1, 1, 1], 
[1, 1, 1, 1, 1, 1, 1], 
[1, 1, 1, 1, 1, 1, 1]], 
[[1, 1, 1, 1, 1, 1, 1], 
[1, 1, 1, 1, 1, 1, 1], 
[1, 1, 1, 1, 1, 1, 1], 
[1, 1, 1, 1, 1, 1, 1], 
[1, 1, 1, 1, 1, 1, 1], 
[1, 1, 1, 1, 1, 1, 1], 
[1, 1, 1, 1, 1, 1, 1]], 
[[1, 1, 1, 1, 1, 1, 1], 
[1, 1, 1, 1, 1, 1, 1], 
[1, 1, 1, 1, 1, 1, 1], 
[1, 1, 1, 1, 1, 1, 1], 
[1, 1, 1, 1, 1, 1, 1], 
[1, 1, 1, 1, 1, 1, 1], 
[1, 1, 1, 1, 1, 1, 1]], 
[[1, 1, 1, 1, 1, 1, 1], 
[1, 1, 1, 1, 1, 1, 1], 
[1, 1, 1, 1, 1, 1, 1], 
[1, 1, 1, 1, 1, 1, 1], 
[1, 1, 1, 1, 1, 1, 1], 
[1, 1, 1, 1, 1, 1, 1], 
[1, 1, 1, 1, 1, 1, 1]], 
[[1, 1, 1, 1, 1, 1, 1], 
[1, 1, 1, 1, 1, 1, 1], 
[1, 1, 1, 1, 1, 1, 1], 
[1, 1, 1, 1, 1, 1, 1], 
[1, 1, 1, 1, 1, 1, 1], 
[1, 1, 1, 1, 1, 1, 1], 
[1, 1, 1, 1, 1, 1, 1]], 
[[1, 1, 1, 1, 1, 1, 1], 
[1, 1, 1, 1, 1, 1, 1], 
[1, 1, 1, 1, 1, 1, 1], 
[1, 1, 1, 1, 1, 1, 1], 
[1, 1, 1, 1, 1, 1, 1], 
[1, 1, 1, 1, 1, 1, 1], 
[1, 1, 1, 1, 1, 1, 1]];int(0..47)]
letting turningPoints be [[1, 4], 
[1, 7], 
[7, 7], 
[7, 1], 
[1, 1], 
[1, 2], 
[6, 2], 
[6, 3], 
[2, 3], 
[2, 6], 
[6, 6], 
[6, 5], 
[3, 5], 
[3, 4], 
[5, 4], 
[0, 0], 
[0, 0], 
[0, 0], 
[0, 0], 
[0, 0], 
[0, 0], 
[0, 0], 
[0, 0], 
[0, 0], 
[0, 0], 
[0, 0], 
[0, 0], 
[0, 0], 
[0, 0], 
[0, 0], 
[0, 0], 
[0, 0], 
[0, 0], 
[0, 0], 
[0, 0], 
[0, 0], 
[0, 0], 
[0, 0], 
[0, 0], 
[0, 0], 
[0, 0], 
[0, 0], 
[0, 0], 
[0, 0], 
[0, 0], 
[0, 0], 
[0, 0], 
[0, 0];int(0..47)]
